
  22    4
  10   10   10   10

   0   0   0   0   0   4 2 5 7 10 
   1  10  10  10  10   4 11 9 4 3 
   3  10  10  10  10   4 19 15 14 8 
   3  10  10  10  10   4 19 15 14 8 
   1  10  10  10  10   2 15 6 
   2  10  10  10  10   3 16 12 9 
   2  10  10  10  10   5 20 19 16 14 12 
   4  10  10  10  10   4 21 16 13 12 
   7  10  10  10  10   4 21 19 18 13 
   2  10  10  10  10   4 19 16 14 12 
   2  10  10  10  10   2 19 16 
   6  10  10  10  10   2 18 17 
   6  10  10  10  10   2 20 17 
   2  10  10  10  10   2 18 17 
   7  10  10  10  10   2 18 17 
   3  10  10  10  10   1 17 
   6  10  10  10  10   1 22
   7  10  10  10  10   1 22
   5  10  10  10  10   1 22
   5  10  10  10  10   1 22
   6  10  10  10  10   1 22
   0   0   0   0   0   0 
